
Gurobi 11.0.1 (win64) logging started Sun Mar 17 09:56:39 2024

Set parameter LogFile to value "res/logfile/sp97arlog.txt"
Gurobi Optimizer version 11.0.1 build v11.0.1rc0 (win64 - Windows 11.0 (22621.2))

CPU model: AMD Ryzen Threadripper PRO 5975WX 32-Cores, instruction set [SSE2|AVX|AVX2]
Thread count: 32 physical cores, 64 logical processors, using up to 10 threads

Optimize a model with 1739 rows, 14101 columns and 290946 nonzeros
Model fingerprint: 0xa0747c06
Variable types: 0 continuous, 14101 integer (14101 binary)
Coefficient statistics:
  Matrix range     [1e+00, 2e+01]
  Objective range  [1e+06, 9e+07]
  Bounds range     [1e+00, 1e+00]
  RHS range        [1e+00, 3e+01]
Found heuristic solution: objective 1.499771e+09
Presolve removed 105 rows and 35 columns
Presolve time: 0.42s
Presolved: 1634 rows, 14066 columns, 258363 nonzeros
Found heuristic solution: objective 1.086328e+09
Variable types: 0 continuous, 14066 integer (14060 binary)
Found heuristic solution: objective 9.754568e+08
Deterministic concurrent LP optimizer: primal and dual simplex
Showing primal log only...

Concurrent spin time: 0.02s

Solved with dual simplex

Root relaxation: objective 6.525790e+08, 1536 iterations, 0.20 seconds (0.43 work units)

    Nodes    |    Current Node    |     Objective Bounds      |     Work
 Expl Unexpl |  Obj  Depth IntInf | Incumbent    BestBd   Gap | It/Node Time

     0     0 6.5258e+08    0  197 9.7546e+08 6.5258e+08  33.1%     -    0s
H    0     0                    6.830490e+08 6.5258e+08  4.46%     -    1s
H    0     0                    6.803609e+08 6.5258e+08  4.08%     -    1s
     0     0 6.5345e+08    0  213 6.8036e+08 6.5345e+08  3.96%     -    2s
H    0     0                    6.727884e+08 6.5348e+08  2.87%     -    5s
     0     0 6.5402e+08    0  223 6.7279e+08 6.5402e+08  2.79%     -    5s
     0     0 6.5402e+08    0  224 6.7279e+08 6.5402e+08  2.79%     -    5s
     0     0 6.5467e+08    0  227 6.7279e+08 6.5467e+08  2.69%     -    6s
H    0     0                    6.706835e+08 6.5507e+08  2.33%     -    6s
     0     0 6.5507e+08    0  238 6.7068e+08 6.5507e+08  2.33%     -    6s
     0     0 6.5513e+08    0  239 6.7068e+08 6.5513e+08  2.32%     -    6s
     0     0 6.5516e+08    0  242 6.7068e+08 6.5516e+08  2.31%     -    6s
     0     0 6.5543e+08    0  211 6.7068e+08 6.5543e+08  2.27%     -    7s
H    0     0                    6.690035e+08 6.5555e+08  2.01%     -    8s
     0     0 6.5555e+08    0  216 6.6900e+08 6.5555e+08  2.01%     -    8s
     0     0 6.5555e+08    0  220 6.6900e+08 6.5555e+08  2.01%     -    8s
     0     0 6.5599e+08    0  235 6.6900e+08 6.5599e+08  1.95%     -    9s
H    0     0                    6.688099e+08 6.5599e+08  1.92%     -   11s
     0     0 6.5621e+08    0  257 6.6881e+08 6.5621e+08  1.88%     -   11s
     0     0 6.5628e+08    0  224 6.6881e+08 6.5628e+08  1.87%     -   11s
     0     0 6.5628e+08    0  225 6.6881e+08 6.5628e+08  1.87%     -   11s
     0     0 6.5650e+08    0  256 6.6881e+08 6.5650e+08  1.84%     -   11s
     0     0 6.5673e+08    0  252 6.6881e+08 6.5673e+08  1.81%     -   12s
     0     0 6.5674e+08    0  255 6.6881e+08 6.5674e+08  1.81%     -   12s
     0     0 6.5674e+08    0  258 6.6881e+08 6.5674e+08  1.81%     -   12s
     0     0 6.5680e+08    0  249 6.6881e+08 6.5680e+08  1.80%     -   12s
H    0     0                    6.681327e+08 6.5680e+08  1.70%     -   12s
     0     0 6.5680e+08    0  249 6.6813e+08 6.5680e+08  1.70%     -   12s
     0     0 6.5680e+08    0  250 6.6813e+08 6.5680e+08  1.70%     -   13s
     0     0 6.5680e+08    0  250 6.6813e+08 6.5680e+08  1.70%     -   13s
     0     0 6.5681e+08    0  196 6.6813e+08 6.5681e+08  1.70%     -   14s
H    0     0                    6.674555e+08 6.5681e+08  1.60%     -   14s
     0     0 6.5681e+08    0  212 6.6746e+08 6.5681e+08  1.60%     -   15s
H    0     0                    6.671704e+08 6.5681e+08  1.55%     -   16s
H    0     0                    6.671575e+08 6.5681e+08  1.55%     -   16s
     0     0 6.5681e+08    0  190 6.6716e+08 6.5681e+08  1.55%     -   16s
     0     0 6.5681e+08    0  211 6.6716e+08 6.5681e+08  1.55%     -   16s
     0     0 6.5681e+08    0  226 6.6716e+08 6.5681e+08  1.55%     -   16s
     0     0 6.5681e+08    0  225 6.6716e+08 6.5681e+08  1.55%     -   16s
     0     0 6.5681e+08    0  227 6.6716e+08 6.5681e+08  1.55%     -   17s
     0     0 6.5681e+08    0  239 6.6716e+08 6.5681e+08  1.55%     -   17s
     0     0 6.5681e+08    0  239 6.6716e+08 6.5681e+08  1.55%     -   17s
     0     0 6.5681e+08    0  240 6.6716e+08 6.5681e+08  1.55%     -   17s
     0     0 6.5681e+08    0  233 6.6716e+08 6.5681e+08  1.55%     -   17s
     0     0 6.5681e+08    0  241 6.6716e+08 6.5681e+08  1.55%     -   17s
     0     0 6.5681e+08    0  236 6.6716e+08 6.5681e+08  1.55%     -   17s
     0     0 6.5683e+08    0  246 6.6716e+08 6.5683e+08  1.55%     -   17s
     0     0 6.5685e+08    0  246 6.6716e+08 6.5685e+08  1.55%     -   17s
     0     0 6.5710e+08    0  251 6.6716e+08 6.5710e+08  1.51%     -   18s
     0     0 6.5715e+08    0  241 6.6716e+08 6.5715e+08  1.50%     -   19s
     0     0 6.5715e+08    0  242 6.6716e+08 6.5715e+08  1.50%     -   19s
H    0     0                    6.668724e+08 6.5715e+08  1.46%     -   20s
     0     0 6.5719e+08    0  251 6.6687e+08 6.5719e+08  1.45%     -   20s
     0     0 6.5719e+08    0  254 6.6687e+08 6.5719e+08  1.45%     -   21s
     0     0 6.5719e+08    0  264 6.6687e+08 6.5719e+08  1.45%     -   21s
     0     0 6.5720e+08    0  265 6.6687e+08 6.5720e+08  1.45%     -   21s
     0     0 6.5721e+08    0  265 6.6687e+08 6.5721e+08  1.45%     -   21s
     0     2 6.5721e+08    0  265 6.6687e+08 6.5721e+08  1.45%     -   23s
H   35    46                    6.662710e+08 6.5752e+08  1.31%   148   26s
H   38    46                    6.657952e+08 6.5752e+08  1.24%   139   26s
H   44    46                    6.656082e+08 6.5752e+08  1.21%   135   26s
H   84    87                    6.652304e+08 6.5752e+08  1.16%   133   26s
H   86    87                    6.651336e+08 6.5752e+08  1.14%   131   26s
H  124   121                    6.640486e+08 6.5752e+08  0.98%   113   28s
   525   499 6.5906e+08   37  180 6.6405e+08 6.5752e+08  0.98%  82.9   30s
  1745  1561 6.6083e+08   51  250 6.6405e+08 6.5752e+08  0.98%  60.0   36s
  1758  1570 6.6272e+08   69  265 6.6405e+08 6.5752e+08  0.98%  59.6   40s
  1773  1580 6.5984e+08   42  222 6.6405e+08 6.5752e+08  0.98%  59.1   45s
  1789  1590 6.6286e+08   71  236 6.6405e+08 6.5755e+08  0.98%  58.6   50s
  1810  1604 6.6306e+08   75  251 6.6405e+08 6.5766e+08  0.96%  57.9   55s
H 1810  1522                    6.637177e+08 6.5766e+08  0.91%  57.9   55s
  1849  1551 6.6065e+08   15  209 6.6372e+08 6.5788e+08  0.88%  64.0   61s
H 1855  1472                    6.635373e+08 6.5788e+08  0.85%  64.2   61s
H 1891  1420                    6.635098e+08 6.5804e+08  0.82%  66.0   62s
H 1897  1348                    6.633386e+08 6.5804e+08  0.80%  66.3   62s
H 1899  1282                    6.627634e+08 6.5804e+08  0.71%  66.3   62s
H 1937  1241                    6.627424e+08 6.5823e+08  0.68%  67.9   63s
  2260  1350 6.5955e+08   28  211 6.6274e+08 6.5831e+08  0.67%  71.8   65s
  3349  1817 6.6074e+08   64  178 6.6274e+08 6.5831e+08  0.67%  76.7   70s
H 3357  1739                    6.626483e+08 6.5831e+08  0.66%  76.7   70s
  5389  2816 6.6226e+08   31  185 6.6265e+08 6.5856e+08  0.62%  71.6   75s
  7995  4915 6.5955e+08   33  190 6.6265e+08 6.5891e+08  0.56%  65.9   80s
 10332  7182 6.6224e+08   58  154 6.6265e+08 6.5907e+08  0.54%  63.8   85s
 12699  9252 6.6059e+08   50  196 6.6265e+08 6.5915e+08  0.53%  62.8   90s
H14388  9175                    6.622300e+08 6.5917e+08  0.46%  61.7   92s
*14550  9582             128    6.622182e+08 6.5919e+08  0.46%  61.7   94s
*14864  5571              90    6.612328e+08 6.5922e+08  0.30%  61.8   94s
 15254  5600 6.6112e+08   31  167 6.6123e+08 6.5924e+08  0.30%  61.4   95s
 16376  5994 6.6060e+08   64  221 6.6123e+08 6.5928e+08  0.29%  62.2  100s
 16399  6009 6.6047e+08   83  249 6.6123e+08 6.5928e+08  0.29%  62.1  105s
H16572  5773                    6.611504e+08 6.5928e+08  0.28%  63.3  108s
 16840  5909 6.5928e+08   46  176 6.6115e+08 6.5928e+08  0.28%  64.3  110s
 18544  6402 6.6037e+08   74  155 6.6115e+08 6.5928e+08  0.28%  65.4  115s
*18570  6064             107    6.610064e+08 6.5928e+08  0.26%  65.4  115s
H19664  6027                    6.609475e+08 6.5928e+08  0.25%  66.1  119s
 19920  6283 6.6037e+08   67  149 6.6095e+08 6.5928e+08  0.25%  66.1  120s
 23133  7135 6.6018e+08   42  146 6.6095e+08 6.5930e+08  0.25%  67.3  125s
 26016  7958 6.5990e+08   43  153 6.6095e+08 6.5946e+08  0.23%  68.6  130s
 30002  8671 6.6013e+08   49  129 6.6095e+08 6.5963e+08  0.20%  69.6  135s
 32580  9309 6.6067e+08   41  211 6.6095e+08 6.5973e+08  0.18%  70.4  140s
 36103 10654 6.6043e+08   41  167 6.6095e+08 6.5983e+08  0.17%  71.5  145s
 39454 11778     cutoff   40      6.6095e+08 6.5991e+08  0.16%  72.7  151s
 42149 12802 6.6017e+08   64  189 6.6095e+08 6.5996e+08  0.15%  74.1  155s
 46655 14082 6.6079e+08   46  146 6.6095e+08 6.6003e+08  0.14%  75.1  161s
 49855 14856 6.6059e+08   41  137 6.6095e+08 6.6008e+08  0.13%  76.2  202s
 53123 15206     cutoff   53      6.6095e+08 6.6012e+08  0.13%  77.5  207s
 55819 15410 6.6070e+08   63  177 6.6095e+08 6.6017e+08  0.12%  79.0  211s
*58065 11846              72    6.607162e+08 6.6018e+08  0.08%  80.0  213s
 58643 11572     cutoff   61      6.6072e+08 6.6021e+08  0.08%  80.3  216s
 59832 10712     cutoff   77      6.6072e+08 6.6025e+08  0.07%  82.0  220s
 62955  8880     cutoff   75      6.6072e+08 6.6036e+08  0.05%  86.3  226s
 65130  7170     cutoff   68      6.6072e+08 6.6044e+08  0.04%  89.2  230s
*68305  4783              91    6.607056e+08 6.6051e+08  0.03%  92.9  234s
 68581  3595     cutoff   41      6.6071e+08 6.6055e+08  0.02%  93.2  236s

Cutting planes:
  Gomory: 7
  Cover: 13
  MIR: 138
  StrongCG: 5
  Flow cover: 87
  GUB cover: 6
  Zero half: 45
  Mod-K: 2
  RLT: 1

Explored 72570 nodes (6879750 simplex iterations) in 239.40 seconds (495.11 work units)
Thread count was 10 (of 64 available processors)

Solution count 10: 6.60706e+08 6.60716e+08 6.60948e+08 ... 6.62742e+08

Optimal solution found (tolerance 1.00e-04)
Best objective 6.607056457600e+08, best bound 6.606780650159e+08, gap 0.0042%

User-callback calls 153497, time in user-callback 0.06 sec
